Si4
1.0
3.900000 0.000000 0.000000
0.000000 3.900000 0.000000
0.000000 0.000000 3.900000
Si
4
direct
0.000000 0.000000 0.000000 Si
0.000000 0.500000 0.500000 Si
0.500000 0.000000 0.500000 Si
0.500000 0.500000 0.000000 Si
